0 14023 13498 13629
1 14023 13498 13487
2 14023 13498 13625
3 14063 13538 13504
4 14082 13548 13497
5 14023 13498 13469
6 14023 13498 13469
7 14023 13498 13469
8 14023 13498 13145
9 14023 13498 13838
10 14023 13498 13469
11 14023 13498 13469
12 14023 13498 13469
13 14023 13498 13469
14 14023 13498 13469
15 14023 13498 13469
16 14023 13498 13469
17 14023 13498 13469
18 14023 13498 13269
19 14023 13498 13684
20 14023 13498 13469
21 14023 13498 13469
22 14122 13550 13492
23 14023 13498 13469
24 14023 13498 13469
25 14023 13498 13376
26 14023 13498 13566
27 14023 13498 13469
28 14023 13498 13469
29 14023 13498 13469
30 14046 13521 13475
31 14023 13498 13469
32 14044 13596 13471
33 14023 13498 13469
34 14023 13498 13469
35 14023 13498 13469
36 14023 13498 13469
37 14062 13525 13499
38 14023 13498 13469
39 14023 13498 13223
40 14023 13498 13728
41 14023 13498 13469
42 14023 13498 13469
43 14023 13498 13469
44 14023 13498 13469
45 14023 13498 13469
46 14023 13498 13469
47 14183 13578 13589
48 14023 13498 13469
49 14023 13498 13469
50 14023 13498 13469
51 14023 13498 13460
52 14023 13498 13469
53 14023 13498 13469
54 14048 13528 13494
55 14112 13594 13518
57 14087 13540 13655
58 14048 13528 13133
59 14048 13528 13944
60 14048 13528 13494
61 14048 13528 13494
62 14048 13528 13494
63 14058 13553 13500
64 14048 13528 13494
65 14048 13528 13494
66 14048 13528 13494
67 14086 13542 13517
68 14048 13528 13494
69 14048 13528 13494
70 14048 13528 13494
71 14062 13564 13507
72 14048 13528 13494
73 14048 13528 13494
74 14102 13542 13245
75 14048 13528 13867
76 14048 13528 13494
77 14048 13528 13494
78 14048 13528 13494
79 14048 13528 13494
80 14048 13528 13494
81 14048 13528 13494
82 14133 13567 13579
83 14133 13567 13236
84 14133 13567 13980
85 14133 13567 13579
86 14188 13623 13603
87 14133 13567 13579
88 14133 13567 13531
89 14133 13567 13560
90 14133 13567 13515
91 14133 13567 13654
92 14133 13567 13579
93 14133 13567 13579
94 14133 13567 13579
95 14133 13567 13579
96 14167 13619 13579
97 14133 13567 13543
98 14133 13567 13579
99 14133 13567 13579
